[VALIDATOR STDOUT]
Checking plan: /home/jfan5/Safety-gen/runs/benchmark/optic/ferry_20260205_113042/ferry/optic_results/ferry-l03-c02-s3001.plan
Plan executed successfully - checking goal
Plan valid
Final value: 6 

Successful plans:
Value: 6
 /home/jfan5/Safety-gen/runs/benchmark/optic/ferry_20260205_113042/ferry/optic_results/ferry-l03-c02-s3001.plan 6
